(set-info :smt-lib-version 2.6)
(set-logic QF_SLIA)
(set-info :source |
Generated by: Denghang Hu
Generated on: 2023-03-29
Application: Evaluate string solvers
Target solver: Ostrich, Z3str3, CVC5
Description: The instance consists of:
(1) a regular membership predicate from the real world
(2) a regular membership predicate to sanitize danger letters in javascript such as <,>,&,",'
(3) a lower bound for string length
|)
(set-info :license "https://creativecommons.org/licenses/by/4.0/")
(set-info :category "industrial")
(set-info :status unknown)
        ;test regex [a-zA-Z]{3}[0-9]{4}[A-Z]{0,1}\s[a-zA-Z]{3,20}\s[a-zA-Z]{0,20}\s[a-zA-Z]{0,20}\s[a-zA-Z]{0,20}\s
(declare-const X String)
(assert (str.in_re X (re.++ ((_ re.loop 3 3) (re.union (re.range "a" "z") (re.range "A" "Z"))) (re.++ ((_ re.loop 4 4) (re.range "0" "9")) (re.++ ((_ re.loop 0 1) (re.range "A" "Z")) (re.++ (re.union (str.to_re " ") (re.union (str.to_re "\u{0b}") (re.union (str.to_re "\u{0a}") (re.union (str.to_re "\u{0d}") (re.union (str.to_re "\u{09}") (str.to_re "\u{0c}")))))) (re.++ ((_ re.loop 3 20) (re.union (re.range "a" "z") (re.range "A" "Z"))) (re.++ (re.union (str.to_re " ") (re.union (str.to_re "\u{0b}") (re.union (str.to_re "\u{0a}") (re.union (str.to_re "\u{0d}") (re.union (str.to_re "\u{09}") (str.to_re "\u{0c}")))))) (re.++ ((_ re.loop 0 20) (re.union (re.range "a" "z") (re.range "A" "Z"))) (re.++ (re.union (str.to_re " ") (re.union (str.to_re "\u{0b}") (re.union (str.to_re "\u{0a}") (re.union (str.to_re "\u{0d}") (re.union (str.to_re "\u{09}") (str.to_re "\u{0c}")))))) (re.++ ((_ re.loop 0 20) (re.union (re.range "a" "z") (re.range "A" "Z"))) (re.++ (re.union (str.to_re " ") (re.union (str.to_re "\u{0b}") (re.union (str.to_re "\u{0a}") (re.union (str.to_re "\u{0d}") (re.union (str.to_re "\u{09}") (str.to_re "\u{0c}")))))) (re.++ ((_ re.loop 0 20) (re.union (re.range "a" "z") (re.range "A" "Z"))) (re.union (str.to_re " ") (re.union (str.to_re "\u{0b}") (re.union (str.to_re "\u{0a}") (re.union (str.to_re "\u{0d}") (re.union (str.to_re "\u{09}") (str.to_re "\u{0c}")))))))))))))))))))
; sanitize danger characters:  < > ' " &
(assert (not (str.in_re X (re.++ re.all (re.union (str.to_re "\u{3c}") (str.to_re "\u{3e}") (str.to_re "\u{27}") (str.to_re "\u{22}") (str.to_re "\u{26}")) re.all))))
(assert (< 20 (str.len X)))
(check-sat)
(exit)
